words_hard_train/6838.qaiger
aag 150 16 0 1 134
2
4
8
10
32
48
68
76
84
94
102
110
166
212
254
284
301
6 2 5
12 9 11
14 8 10
16 13 15
18 7 17
20 6 16
22 19 21
24 3 4
26 25 7
28 23 27
30 21 15
34 8 32
36 9 4
38 36 33
40 9 5
42 40 33
44 39 43
46 35 44
50 47 49
52 46 48
54 51 53
56 30 55
58 31 54
60 57 59
62 29 60
64 28 61
66 63 65
70 22 69
72 71 29
74 23 68
78 26 77
80 75 78
82 72 81
86 83 85
88 66 87
90 82 84
92 89 91
96 92 95
98 93 94
100 59 53
104 44 102
106 38 103
108 105 107
112 109 111
114 42 103
116 115 110
118 108 116
120 113 119
122 114 111
124 120 123
126 100 125
128 101 124
130 127 129
132 65 130
134 64 131
136 133 135
138 99 137
140 97 139
142 39 103
144 117 123
146 143 144
148 142 145
150 147 149
152 129 119
154 151 152
156 150 153
158 155 157
160 135 158
162 134 159
164 161 163
168 164 166
170 141 169
172 165 167
174 171 173
176 102 111
178 177 157
180 123 48
182 106 144
184 180 183
186 122 49
188 185 187
190 182 49
192 188 191
194 193 33
196 192 32
198 195 197
200 178 199
202 179 198
204 201 203
206 163 204
208 162 205
210 207 209
214 211 213
216 174 215
218 210 212
220 217 219
222 203 197
224 187 10
226 186 11
228 225 227
230 190 229
232 191 228
234 231 233
236 234 9
238 235 8
240 237 239
242 222 241
244 223 240
246 243 245
248 209 246
250 208 247
252 249 251
256 252 254
258 220 257
260 253 255
262 259 261
264 191 227
266 265 225
268 267 26
270 266 27
272 269 271
274 245 239
276 272 274
278 273 275
280 277 279
282 262 280
286 250 285
288 282 287
290 251 284
292 291 283
294 289 293
296 263 281
298 296 287
300 295 299
i0 1 x1[7]
i1 1 x1[0]
i2 1 x1[1]
i3 1 x1[6]
i4 1 x1[2]
i5 1 x1[5]
i6 2 y1[1]
i7 2 y1[0]
i8 2 y1[2]
i9 2 y1[3]
i10 1 x1[3]
i11 1 x1[4]
i12 2 y1[4]
i13 2 y1[5]
i14 2 y1[6]
i15 2 y1[7]
o0 bv[0]
c
simplified
  >
    add
      subtract
        1
        1 x1
      reverse
        1 x1
    2 y1
