words_hard_train/6838.qaiger.qdimacs
p cnf 150 403
a 1 2 4 5 16 51 55 24 0
e 3 6 7 8 9 10 11 12 13 14 15 17 18 19 20 21 22 23 25 26 27 28 29 30 31 32 33 34 35 36 37 38 39 40 41 42 43 44 45 46 47 48 49 50 52 53 54 56 57 58 59 60 61 62 63 64 65 66 67 68 69 70 71 72 73 74 75 76 77 78 79 80 81 82 83 84 85 86 87 88 89 90 91 92 93 94 95 96 97 98 99 100 101 102 103 104 105 106 107 108 109 110 111 112 113 114 115 116 117 118 119 120 121 122 123 124 125 126 127 128 129 130 131 132 133 134 135 136 137 138 139 140 141 142 143 144 145 146 147 148 149 150 0
-1 2 3 0
1 -3 0
-2 -3 0
4 5 6 0
-4 -6 0
-5 -6 0
-4 -5 7 0
4 -7 0
5 -7 0
6 7 8 0
-6 -8 0
-7 -8 0
3 8 9 0
-3 -9 0
-8 -9 0
-3 -8 10 0
3 -10 0
8 -10 0
9 10 11 0
-9 -11 0
-10 -11 0
1 -2 12 0
-1 -12 0
2 -12 0
12 3 13 0
-12 -13 0
-3 -13 0
11 13 14 0
-11 -14 0
-13 -14 0
10 7 15 0
-10 -15 0
-7 -15 0
-4 -16 17 0
4 -17 0
16 -17 0
4 -2 18 0
-4 -18 0
2 -18 0
-18 16 19 0
18 -19 0
-16 -19 0
4 2 20 0
-4 -20 0
-2 -20 0
-20 16 21 0
20 -21 0
-16 -21 0
19 21 22 0
-19 -22 0
-21 -22 0
17 -22 23 0
-17 -23 0
22 -23 0
23 24 25 0
-23 -25 0
-24 -25 0
-23 -24 26 0
23 -26 0
24 -26 0
25 26 27 0
-25 -27 0
-26 -27 0
-15 27 28 0
15 -28 0
-27 -28 0
15 -27 29 0
-15 -29 0
27 -29 0
28 29 30 0
-28 -30 0
-29 -30 0
14 -30 31 0
-14 -31 0
30 -31 0
-14 30 32 0
14 -32 0
-30 -32 0
31 32 33 0
-31 -33 0
-32 -33 0
-11 34 35 0
11 -35 0
-34 -35 0
35 14 36 0
-35 -36 0
-14 -36 0
11 -34 37 0
-11 -37 0
34 -37 0
-13 38 39 0
13 -39 0
-38 -39 0
37 -39 40 0
-37 -40 0
39 -40 0
-36 40 41 0
36 -41 0
-40 -41 0
41 42 43 0
-41 -43 0
-42 -43 0
-33 43 44 0
33 -44 0
-43 -44 0
-41 -42 45 0
41 -45 0
42 -45 0
44 45 46 0
-44 -46 0
-45 -46 0
-46 47 48 0
46 -48 0
-47 -48 0
46 -47 49 0
-46 -49 0
47 -49 0
29 26 50 0
-29 -50 0
-26 -50 0
-22 -51 52 0
22 -52 0
51 -52 0
-19 51 53 0
19 -53 0
-51 -53 0
52 53 54 0
-52 -54 0
-53 -54 0
54 55 56 0
-54 -56 0
-55 -56 0
-21 51 57 0
21 -57 0
-51 -57 0
57 -55 58 0
-57 -58 0
55 -58 0
-54 -58 59 0
54 -59 0
58 -59 0
56 59 60 0
-56 -60 0
-59 -60 0
-57 55 61 0
57 -61 0
-55 -61 0
-60 61 62 0
60 -62 0
-61 -62 0
-50 62 63 0
50 -63 0
-62 -63 0
50 -62 64 0
-50 -64 0
62 -64 0
63 64 65 0
-63 -65 0
-64 -65 0
32 -65 66 0
-32 -66 0
65 -66 0
-32 65 67 0
32 -67 0
-65 -67 0
66 67 68 0
-66 -68 0
-67 -68 0
49 68 69 0
-49 -69 0
-68 -69 0
48 69 70 0
-48 -70 0
-69 -70 0
19 51 71 0
-19 -71 0
-51 -71 0
58 61 72 0
-58 -72 0
-61 -72 0
71 -72 73 0
-71 -73 0
72 -73 0
-71 72 74 0
71 -74 0
-72 -74 0
73 74 75 0
-73 -75 0
-74 -75 0
64 59 76 0
-64 -76 0
-59 -76 0
75 -76 77 0
-75 -77 0
76 -77 0
-75 76 78 0
75 -78 0
-76 -78 0
77 78 79 0
-77 -79 0
-78 -79 0
67 -79 80 0
-67 -80 0
79 -80 0
-67 79 81 0
67 -81 0
-79 -81 0
80 81 82 0
-80 -82 0
-81 -82 0
-82 -83 84 0
82 -84 0
83 -84 0
70 84 85 0
-70 -85 0
-84 -85 0
82 83 86 0
-82 -86 0
-83 -86 0
85 86 87 0
-85 -87 0
-86 -87 0
-51 55 88 0
51 -88 0
-55 -88 0
88 78 89 0
-88 -89 0
-78 -89 0
61 -24 90 0
-61 -90 0
24 -90 0
-53 -72 91 0
53 -91 0
72 -91 0
-90 91 92 0
90 -92 0
-91 -92 0
-61 24 93 0
61 -93 0
-24 -93 0
92 93 94 0
-92 -94 0
-93 -94 0
-91 24 95 0
91 -95 0
-24 -95 0
-94 95 96 0
94 -96 0
-95 -96 0
96 16 97 0
-96 -97 0
-16 -97 0
-96 -16 98 0
96 -98 0
16 -98 0
97 98 99 0
-97 -99 0
-98 -99 0
-89 99 100 0
89 -100 0
-99 -100 0
89 -99 101 0
-89 -101 0
99 -101 0
100 101 102 0
-100 -102 0
-101 -102 0
81 -102 103 0
-81 -103 0
102 -103 0
-81 102 104 0
81 -104 0
-102 -104 0
103 104 105 0
-103 -105 0
-104 -105 0
105 106 107 0
-105 -107 0
-106 -107 0
-87 107 108 0
87 -108 0
-107 -108 0
-105 -106 109 0
105 -109 0
106 -109 0
108 109 110 0
-108 -110 0
-109 -110 0
101 98 111 0
-101 -111 0
-98 -111 0
93 -5 112 0
-93 -112 0
5 -112 0
-93 5 113 0
93 -113 0
-5 -113 0
112 113 114 0
-112 -114 0
-113 -114 0
-95 114 115 0
95 -115 0
-114 -115 0
95 -114 116 0
-95 -116 0
114 -116 0
115 116 117 0
-115 -117 0
-116 -117 0
-117 4 118 0
117 -118 0
-4 -118 0
117 -4 119 0
-117 -119 0
4 -119 0
118 119 120 0
-118 -120 0
-119 -120 0
-111 120 121 0
111 -121 0
-120 -121 0
111 -120 122 0
-111 -122 0
120 -122 0
121 122 123 0
-121 -123 0
-122 -123 0
104 -123 124 0
-104 -124 0
123 -124 0
-104 123 125 0
104 -125 0
-123 -125 0
124 125 126 0
-124 -126 0
-125 -126 0
-126 -127 128 0
126 -128 0
127 -128 0
-110 128 129 0
110 -129 0
-128 -129 0
126 127 130 0
-126 -130 0
-127 -130 0
129 130 131 0
-129 -131 0
-130 -131 0
95 113 132 0
-95 -132 0
-113 -132 0
132 112 133 0
-132 -133 0
-112 -133 0
133 -13 134 0
-133 -134 0
13 -134 0
-133 13 135 0
133 -135 0
-13 -135 0
134 135 136 0
-134 -136 0
-135 -136 0
122 119 137 0
-122 -137 0
-119 -137 0
-136 -137 138 0
136 -138 0
137 -138 0
136 137 139 0
-136 -139 0
-137 -139 0
138 139 140 0
-138 -140 0
-139 -140 0
-131 -140 141 0
131 -141 0
140 -141 0
-125 142 143 0
125 -143 0
-142 -143 0
-141 143 144 0
141 -144 0
-143 -144 0
125 -142 145 0
-125 -145 0
142 -145 0
145 141 146 0
-145 -146 0
-141 -146 0
144 146 147 0
-144 -147 0
-146 -147 0
131 140 148 0
-131 -148 0
-140 -148 0
-148 143 149 0
148 -149 0
-143 -149 0
147 149 150 0
-147 -150 0
-149 -150 0
-150 0
